<number of tasks>
50

<cycle time>
1000

<order strength>
0.596


<task times>
1 203
2 181
3 456
4 270
5 213
6 173
7 485
8 118
9 94
10 314
11 85
12 69
13 141
14 268
15 248
16 158
17 167
18 67
19 134
20 117
21 161
22 85
23 181
24 133
25 120
26 41
27 181
28 223
29 178
30 289
31 493
32 110
33 188
34 205
35 151
36 527
37 325
38 130
39 113
40 438
41 192
42 316
43 59
44 163
45 262
46 487
47 108
48 248
49 139
50 171

<precedence relations>
1,13
2,32
3,6
4,6
4,7
5,8
5,9
6,13
7,13
8,32
9,10
9,11
9,12
10,13
11,13
12,14
12,15
12,16
13,17
13,18
13,19
13,20
13,21
13,22
13,24
14,31
15,32
16,23
16,24
17,32
17,42
18,29
19,25
19,29
20,25
21,25
21,26
21,28
21,30
22,31
23,26
23,29
24,25
24,26
24,27
24,30
25,31
26,31
27,32
28,32
29,43
30,32
30,33
31,34
31,35
31,36
31,37
32,38
32,39
32,40
32,41
33,42
35,44
36,42
37,48
38,43
38,44
38,48
39,43
40,50
42,44
42,45
42,46
43,45
44,49
44,50
45,47
45,50
46,47
46,48

<end>
